(set-logic ALL)
(set-option :produce-models true)
(declare-sort BoundSet 0)
(declare-sort UnboundSet 0)
(set-option :finite-model-find true)
(declare-fun IsSmall (BoundSet) Bool)
(declare-fun IsPushing (BoundSet BoundSet) Bool)
(declare-fun IsPink (BoundSet) Bool)
(declare-fun IsOverGrass (BoundSet BoundSet) Bool)
(declare-fun HasBrownLeaves (BoundSet BoundSet) Bool)
(declare-fun HasTreesInBackground (BoundSet BoundSet) Bool)
(declare-fun IsOutside (BoundSet) Bool)
(assert (not (=> (and (exists ((c BoundSet)) (exists ((b BoundSet)) (exists ((e BoundSet)) (exists ((a BoundSet)) (exists ((d BoundSet)) (and (IsSmall a) (and (IsPushing a b) (and (IsPink b) (and (IsOverGrass b c) (and (HasBrownLeaves c d) (HasTreesInBackground c e))))))))))) (and (forall ((h BoundSet)) (forall ((g BoundSet)) (=> (IsSmall g) (IsOutside h)))) (forall ((i BoundSet)) (forall ((j BoundSet)) (=> (IsOutside i) (IsSmall j)))))) (exists ((f BoundSet)) (IsOutside f)))))
(check-sat)
(get-model)